(set-option :produce-models true)
(set-logic QF_UF)
(declare-fun p45() Bool)
(declare-fun p27() Bool)
(declare-fun p9() Bool)
(declare-fun p12() Bool)
(declare-fun p67() Bool)
(declare-fun p19() Bool)
(declare-fun p50() Bool)
(declare-fun p64() Bool)
(declare-fun p43() Bool)
(declare-fun p28() Bool)
(declare-fun p74() Bool)
(declare-fun p58() Bool)
(declare-fun p52() Bool)
(declare-fun p38() Bool)
(declare-fun p16() Bool)
(declare-fun p40() Bool)
(declare-fun p46() Bool)
(declare-fun p11() Bool)
(declare-fun p84() Bool)
(declare-fun p66() Bool)
(declare-fun p78() Bool)
(declare-fun p53() Bool)
(declare-fun p20() Bool)
(declare-fun p41() Bool)
(declare-fun p14() Bool)
(declare-fun p80() Bool)
(declare-fun p35() Bool)
(declare-fun p33() Bool)
(declare-fun p65() Bool)
(declare-fun p25() Bool)
(declare-fun p62() Bool)
(declare-fun p72() Bool)
(declare-fun p68() Bool)
(declare-fun p86() Bool)
(declare-fun p3() Bool)
(declare-fun p4() Bool)
(declare-fun p76() Bool)
(declare-fun p71() Bool)
(declare-fun p24() Bool)
(declare-fun p61() Bool)
(declare-fun p22() Bool)
(declare-fun p57() Bool)
(declare-fun p13() Bool)
(declare-fun p75() Bool)
(declare-fun p69() Bool)
(declare-fun p89() Bool)
(declare-fun p44() Bool)
(declare-fun p32() Bool)
(declare-fun p37() Bool)
(declare-fun p77() Bool)
(declare-fun p63() Bool)
(declare-fun p59() Bool)
(declare-fun p60() Bool)
(declare-fun p30() Bool)
(declare-fun p10() Bool)
(declare-fun p2() Bool)
(declare-fun p7() Bool)
(declare-fun p5() Bool)
(declare-fun p51() Bool)
(declare-fun p83() Bool)
(declare-fun p23() Bool)
(declare-fun p31() Bool)
(declare-fun p73() Bool)
(declare-fun p6() Bool)
(declare-fun p87() Bool)
(declare-fun p8() Bool)
(declare-fun p82() Bool)
(declare-fun p54() Bool)
(declare-fun p49() Bool)
(declare-fun p56() Bool)
(declare-fun p70() Bool)
(declare-fun p85() Bool)
(declare-fun p81() Bool)
(declare-fun p18() Bool)
(declare-fun p48() Bool)
(declare-fun p55() Bool)
(declare-fun p34() Bool)
(declare-fun p15() Bool)
(declare-fun p79() Bool)
(declare-fun p29() Bool)
(declare-fun p88() Bool)
(declare-fun p42() Bool)
(declare-fun p39() Bool)
(declare-fun p17() Bool)
(declare-fun p1() Bool)
(declare-fun p36() Bool)
(declare-fun p47() Bool)
(declare-fun p26() Bool)
(declare-fun p0() Bool)
(declare-fun p21() Bool)
(assert
(and (or p45 (not p27) p9) (or p12 (not p67) (not p19)) (or (not p50) p64 (not p43)) (or p28 p74 (not p74)) (or (not p27) (not p58) p52) (or p38 (not p16) p40) (or p46 (not p11) (not p52)) (or (not p84) p66 (not p78)) (or p12 p53 (not p52)) (or p20 (not p41) p40) (or p14 p80 p35) (or (not p46) p38 (not p33)) (or p65 p25 p66) (or p62 (not p43) p65) (or (not p72) p68 p86) (or (not p3) p64 (not p4)) (or p76 (not p71) p3) (or (not p80) (not p65) p4) (or (not p24) p61 p65) (or p22 p57 p68) (or p35 p13 (not p75)) (or p22 (not p24) (not p69)) (or (not p76) (not p64) p61) (or (not p89) (not p68) (not p72)) (or (not p12) p40 (not p61)) (or (not p44) p62 (not p14)) (or p32 (not p32) p37) (or p77 p63 p59) (or (not p61) p76 (not p28)) (or p78 p57 (not p60)) (or p57 (not p62) p30) (or (not p74) (not p46) (not p20)) (or (not p62) (not p10) p16) (or (not p2) (not p45) p44) (or (not p7) p5 (not p51)) (or (not p41) p38 p19) (or p11 (not p20) p2) (or p14 p83 (not p68)) (or (not p23) p24 p24) (or (not p41) (not p43) (not p31)) (or p13 (not p35) p78) (or p19 p73 p6) (or p87 (not p57) (not p69)) (or p33 p69 p52) (or p69 (not p11) p8) (or (not p82) (not p22) p78) (or p45 p31 p54) (or (not p76) (not p49) p25) (or p60 p57 p80) (or p19 (not p80) p56) (or (not p46) (not p87) p30) (or (not p80) p70 (not p72)) (or (not p82) p69 (not p85)) (or (not p81) (not p3) p18) (or (not p73) p48 p40) (or p45 p73 (not p55)) (or (not p55) p34 (not p55)) (or (not p60) (not p41) (not p53)) (or p59 (not p13) p58) (or (not p13) (not p43) (not p5)) (or (not p31) p58 (not p49)) (or p8 p10 p15) (or p3 (not p83) (not p75)) (or p18 (not p61) (not p76)) (or p30 (not p76) p32) (or (not p27) p5 p13) (or p79 p29 p88) (or p45 (not p64) (not p83)) (or (not p28) p37 (not p34)) (or p58 (not p75) p55) (or p42 (not p39) (not p73)) (or (not p28) p81 p52) (or (not p63) (not p17) p57) (or (not p38) (not p1) p28) (or p8 p57 (not p41)) (or p38 p69 p43) (or p61 p17 p51) (or p7 (not p64) (not p48)) (or (not p60) (not p10) (not p79)) (or p73 p69 p19) (or p11 (not p46) p88) (or p37 p15 (not p32)) (or (not p37) (not p28) p13) (or p43 p73 (not p72)) (or (not p85) (not p10) p5) (or (not p18) (not p69) (not p38)) (or (not p65) p37 p4) (or p20 p32 p64) (or (not p8) (not p74) p36) (or (not p37) p78 (not p72)) (or p85 p1 p29) (or (not p4) (not p72) (not p16)) (or (not p87) p56 (not p33)) (or (not p24) p31 (not p75)) (or p47 p26 (not p78)) (or (not p0) (not p70) p41) (or p1 (not p51) (not p44)) (or p46 p48 p82) (or p71 (not p3) (not p9)) (or p4 (not p71) p70) (or p51 (not p83) (not p56)) (or (not p10) p77 (not p83)) (or (not p34) (not p75) p11) (or p2 p28 (not p59)) (or p73 p34 (not p54)) (or p88 p49 (not p89)) (or (not p9) (not p63) (not p48)) (or p12 p84 p75) (or (not p60) (not p64) p67) (or (not p5) (not p18) p66) (or (not p12) (not p74) p70) (or p49 p18 (not p1)) (or (not p3) p28 (not p41)) (or p78 p73 (not p29)) (or p74 p13 p41) (or p85 p24 (not p25)) (or (not p11) (not p30) p40) (or (not p68) (not p1) p4) (or p8 p36 (not p48)) (or (not p2) (not p73) (not p60)) (or (not p71) p20 (not p35)) (or p27 p69 p10) (or (not p54) (not p15) (not p21)) (or p82 p77 p36) (or (not p43) p59 p20) (or p80 p85 p19) (or p26 p29 p67) (or (not p16) (not p37) (not p75)) (or p6 (not p68) (not p43)) (or p23 (not p23) (not p35)) (or (not p85) p80 p14) (or p78 (not p14) (not p55)) (or (not p76) p64 (not p53)) (or p68 (not p31) p23) (or p88 (not p4) (not p42)) (or p36 p60 (not p11)) (or (not p8) p41 (not p7)) (or p62 p71 (not p57)) (or p22 (not p8) (not p50)) (or (not p29) p87 p86) (or (not p45) (not p40) p89) (or p38 (not p41) (not p74)) (or (not p68) (not p0) p0) (or (not p53) (not p43) p7) (or p84 (not p57) p15) (or p79 p85 (not p39)) (or p45 (not p24) (not p33)) (or p14 p33 (not p18)) (or p4 p87 (not p25)) (or p10 (not p24) p18) (or (not p79) (not p47) (not p30)) (or (not p24) (not p47) (not p32)) (or p25 p24 (not p69)) (or (not p73) p69 p87) (or (not p78) p88 (not p73)) (or p26 (not p10) p18) (or (not p67) (not p77) (not p61)) (or (not p10) (not p57) p73) (or p16 p52 (not p81)) (or p73 p41 p2) (or (not p14) p67 (not p16)) (or (not p85) p77 p85) (or p47 p14 p58) (or (not p27) (not p60) (not p21)) (or p31 p61 p34) (or (not p37) p69 p82) (or (not p5) p6 p84) (or p67 (not p68) (not p34)) (or p37 p51 p12) (or (not p53) (not p70) p88) (or (not p27) (not p80) p88) (or p75 p54 p45) (or (not p67) p63 p82) (or p17 (not p61) p79) (or (not p51) p34 p37) (or p85 p16 p1) (or p35 (not p42) (not p51)) (or p79 (not p3) (not p31)) (or (not p75) (not p71) (not p43)) (or (not p15) p5 p51) (or p84 p38 (not p13)) (or (not p26) (not p27) p24) (or (not p34) (not p75) (not p49)) (or (not p41) (not p37) p17) (or p55 (not p75) p49) (or (not p11) p11 (not p23)) (or p69 p38 (not p48)) (or p68 (not p18) p47) (or p83 p39 p21) (or (not p83) (not p53) (not p77)) (or p73 (not p45) (not p30)) (or (not p66) p46 p59) (or p23 p83 p23) (or (not p16) p73 p44) (or (not p75) (not p17) (not p68)) (or (not p10) (not p17) (not p1)) (or p21 p76 (not p87)) (or (not p89) (not p38) (not p19)) (or p50 p76 p11) (or p49 p36 p84) (or (not p88) (not p5) p56) (or (not p10) (not p7) (not p4)) (or p24 (not p81) p16) (or p20 p70 p1) (or p81 (not p33) p32) (or p15 p84 p83) (or p12 p26 p70) (or p46 p51 (not p66)) (or (not p16) (not p80) (not p45)) (or p34 (not p14) p37) (or (not p1) (not p27) (not p88)) (or p76 (not p9) p0) (or p80 p67 (not p8)) (or p75 p64 (not p82)) (or p51 (not p82) p1) (or p37 (not p21) (not p32)) (or (not p14) p43 p47) (or p56 p41 (not p32)) (or (not p1) p85 p3) (or (not p61) p5 (not p19)) (or (not p63) p21 (not p38)) (or p65 p15 p64) (or (not p79) (not p88) (not p53)) (or p43 p74 p11) (or p13 (not p87) (not p49)) (or (not p45) p81 p42) (or p69 (not p62) p75) (or (not p8) (not p28) (not p5)) (or p88 p22 p60) (or (not p82) p88 (not p27)) (or p74 (not p30) p69) (or p10 (not p8) (not p83)) (or (not p37) p76 (not p58)) (or p33 p25 (not p9)) (or p37 (not p62) p53) (or p38 p82 p86) (or (not p72) p3 p7) (or p30 (not p22) p56) (or p86 p35 (not p27)) (or (not p43) (not p46) p86) (or (not p52) p2 p81) (or p17 p33 p13) (or p19 p82 (not p40)) (or (not p33) p39 p52) (or p73 (not p15) p43) (or (not p1) (not p46) (not p47)) (or p75 p66 p78) (or (not p15) p87 (not p40)) (or (not p50) (not p70) (not p72)) (or (not p77) p58 p70) (or (not p38) p36 p11) (or (not p19) p64 (not p6)) (or p75 (not p51) (not p83)) (or p18 (not p9) (not p12)) (or p35 (not p42) p23) (or p25 (not p19) p51) (or (not p61) p32 p72) (or p13 (not p48) (not p79)) (or (not p45) (not p74) (not p40)) (or p46 p62 (not p53)) (or p72 p22 p80) (or p2 p19 p53) (or (not p36) (not p45) (not p53)) (or (not p69) p31 (not p84)) (or p51 (not p72) p2) (or (not p57) p6 p66) (or (not p20) (not p22) (not p11)) (or p78 (not p16) p1) (or p66 p24 p58) (or p1 (not p79) p65) (or p36 (not p7) (not p8)) (or (not p52) p9 (not p85)) (or (not p46) p16 (not p3)) (or (not p15) (not p40) p73) (or (not p47) p36 p40) (or (not p79) (not p55) (not p21)) (or p31 p31 p29) (or p27 p16 p14) (or p50 p66 (not p70)) (or p22 (not p48) p74) (or p87 p63 p10) (or p77 (not p31) p26) (or p8 p60 p49) (or (not p0) (not p29) p53) (or p47 (not p25) (not p34)) (or (not p76) (not p46) p70) (or (not p13) p76 p32) (or (not p29) p39 (not p70)) (or p76 (not p73) p78) (or p50 (not p83) (not p79)) (or p33 (not p46) p75) (or (not p53) p4 (not p74)) (or p69 p46 (not p40)) (or p31 (not p76) p59) (or (not p89) p58 (not p79)) (or (not p69) (not p5) (not p71)) (or p57 (not p20) p10) (or (not p15) (not p45) p35) (or (not p9) (not p53) (not p7)) (or p21 (not p29) p15) (or p32 p12 (not p10)) (or (not p63) p52 (not p21)) (or p27 p78 (not p65)) (or p22 (not p30) (not p85)) (or p2 (not p9) (not p3)) (or p7 p39 (not p42)) (or p20 (not p61) p40) (or p12 (not p28) (not p51)) (or (not p34) (not p45) (not p54)) (or (not p59) p26 (not p89)) (or (not p8) p25 (not p60)) (or (not p10) (not p88) (not p16)) (or (not p44) p3 p87) (or p42 (not p24) (not p72)) (or p14 (not p6) p34) (or p86 p64 (not p6)) (or p15 (not p17) (not p36)) (or p63 p2 (not p34)) (or (not p67) p63 (not p17)) (or p69 p81 (not p45)) (or p89 (not p25) p60) (or p25 (not p68) p85) (or p51 p0 (not p18)) (or (not p80) p47 p48) (or p81 (not p28) p74) (or (not p36) (not p77) p70) (or (not p2) p55 (not p26)) (or (not p73) p55 p16) (or p16 p48 (not p79)) (or p62 (not p71) p17) (or p11 p38 (not p82)) (or (not p15) p46 p63) (or p6 (not p89) (not p65)) (or (not p66) p19 p26) (or (not p84) (not p65) (not p72)) (or (not p10) p43 p30) (or (not p30) p73 p53) (or p38 p87 p74) (or (not p81) p56 p41) (or (not p3) p80 (not p48)) (or p23 p45 (not p82)) (or (not p58) p10 (not p68)) (or (not p8) p87 p56) (or (not p64) p63 p18) (or (not p86) (not p23) (not p76)) (or (not p41) (not p12) p16) (or p64 p80 p23) (or (not p85) (not p78) (not p23)) (or p21 (not p87) p14) (or p44 (not p89) (not p7)) (or p54 p54 p45) (or (not p8) p34 (not p9)) (or (not p12) (not p47) p82) (or (not p80) (not p26) p51) (or p45 p58 p50) (or (not p28) (not p36) (not p89)) (or p46 (not p64) (not p35)) (or p1 p54 (not p79)) (or (not p6) (not p44) p53) (or (not p8) p71 (not p72)) (or (not p80) (not p23) p81) (or (not p37) p36 (not p27)) (or (not p16) p31 p45) (or p37 p24 (not p68)) (or (not p44) p14 (not p50)) (or (not p49) (not p33) (not p57)) (or p37 p69 (not p2)) (or p26 p5 (not p82)) (or p45 (not p27) p63) (or (not p71) (not p6) p8) (or p20 (not p7) (not p70)) (or p32 (not p68) (not p63)) (or p53 p37 p36) (or p5 p22 (not p86)) (or p41 p74 p25) (or (not p29) (not p47) (not p65)) (or (not p31) p20 (not p86)) (or p16 p82 (not p48)) (or p17 p84 p51) (or (not p16) (not p39) (not p32)) (or p36 p23 (not p70)) (or p51 p10 p30) (or (not p59) p4 p56) (or (not p61) p8 p88) (or (not p37) p46 (not p48)) (or p13 (not p80) (not p73)) (or (not p53) p31 (not p7)) (or p42 p42 p15) (or (not p1) (not p16) p4) (or p4 p0 p22) (or p59 (not p31) p56) (or (not p76) p77 p63) (or p19 (not p49) p44) (or (not p24) p61 (not p34)) (or (not p43) (not p20) p66) (or p78 p36 (not p68)) (or p33 p2 (not p39)) (or (not p68) p52 (not p35)) (or (not p83) p66 p39) (or p43 p68 p77) (or p12 p35 (not p50)) (or p7 (not p10) (not p1)) (or p31 p76 (not p6)) (or (not p63) p65 p15) (or p14 (not p1) (not p63)) (or p10 (not p0) (not p61)) (or p22 (not p65) p78) (or (not p68) (not p88) p12) (or (not p45) p16 p35) (or p3 (not p66) (not p24)) (or (not p79) (not p75) p58) (or (not p72) (not p24) (not p59)) (or (not p48) p28 p18) (or p45 p71 (not p19)) (or p85 (not p61) (not p20)) (or p8 (not p86) p48) (or (not p11) (not p39) (not p28)) (or (not p52) p18 (not p61)) (or p73 (not p28) (not p7)) (or p2 p49 (not p89)) (or p20 p10 (not p33)) (or (not p61) (not p48) p23) (or (not p56) (not p89) (not p42)) (or p0 p85 p76) (or (not p38) (not p25) p13) (or p60 p41 (not p13)) (or (not p68) (not p45) (not p11)) (or p53 p75 p75) (or p37 (not p35) p66) (or (not p78) (not p26) (not p53)) (or p72 (not p86) (not p61)) (or (not p86) (not p70) (not p56)) (or (not p77) p16 (not p77)) (or (not p88) (not p85) p88) (or (not p64) p37 (not p26)) (or (not p64) p85 p81) (or (not p60) p31 (not p4)) (or (not p47) (not p47) (not p70)) (or p18 p56 p33) (or (not p61) p72 p3) (or (not p23) (not p57) (not p89)) (or (not p62) (not p61) (not p5)) (or p71 (not p88) p59) (or (not p53) p3 p78) (or (not p77) (not p32) (not p49)) (or (not p77) p30 p61) (or p73 p26 (not p71)) (or p0 (not p40) p56))
)
(check-sat)
(get-model)
